param M := 3;  # Number of characters of the first string
param N := 4;  # Number of characters of the second string

param: STRINGS : FIRST_STRING   SECOND_STRING:=
            1 "T"             "A"
            2 "A"             "C"
            3 "C"             "T"
            4 .               "D";
end;